SECTION Graph
Nodes 369
Edges 368

E 1 2 1
E 1 3 1
E 1 5 1
E 1 9 1
E 1 17 1
E 1 33 1
E 1 65 1
E 1 129 1
E 2 4 1
E 2 6 1
E 2 10 1
E 2 18 1
E 2 34 1
E 2 66 1
E 2 130 1
E 2 258 1
E 3 7 1
E 3 11 1
E 3 19 1
E 3 35 1
E 3 67 1
E 3 131 1
E 3 259 1
E 4 8 1
E 4 12 1
E 4 20 1
E 4 36 1
E 4 68 1
E 4 132 1
E 5 13 1
E 5 21 1
E 5 37 1
E 5 69 1
E 5 133 1
E 5 261 1
E 6 14 1
E 6 22 1
E 6 38 1
E 6 70 1
E 6 134 1
E 8 16 1
E 8 24 1
E 8 40 1
E 8 72 1
E 8 136 1
E 8 264 1
E 9 25 1
E 9 41 1
E 9 73 1
E 9 137 1
E 9 265 1
E 10 26 1
E 10 42 1
E 10 74 1
E 10 138 1
E 12 28 1
E 12 44 1
E 12 76 1
E 12 140 1
E 12 268 1
E 14 30 1
E 14 46 1
E 14 78 1
E 14 142 1
E 14 270 1
E 17 49 1
E 17 81 1
E 17 145 1
E 17 273 1
E 18 50 1
E 18 82 1
E 18 146 1
E 20 52 1
E 20 84 1
E 20 148 1
E 20 276 1
E 22 54 1
E 22 86 1
E 22 150 1
E 22 278 1
E 23 24 1
E 23 55 1
E 23 87 1
E 23 151 1
E 23 279 1
E 24 32 1
E 24 56 1
E 24 88 1
E 24 152 1
E 26 58 1
E 26 90 1
E 26 154 1
E 26 282 1
E 27 28 1
E 27 59 1
E 27 91 1
E 27 155 1
E 27 283 1
E 28 60 1
E 28 92 1
E 28 156 1
E 31 32 1
E 32 64 1
E 32 96 1
E 32 160 1
E 32 288 1
E 33 97 1
E 33 161 1
E 33 289 1
E 34 98 1
E 34 162 1
E 36 100 1
E 36 164 1
E 36 292 1
E 38 102 1
E 38 166 1
E 38 294 1
E 39 40 1
E 39 103 1
E 39 167 1
E 40 48 1
E 40 104 1
E 40 168 1
E 42 106 1
E 42 170 1
E 42 298 1
E 43 44 1
E 43 107 1
E 43 171 1
E 44 108 1
E 44 172 1
E 47 48 1
E 48 112 1
E 48 176 1
E 48 304 1
E 50 114 1
E 50 178 1
E 50 306 1
E 51 52 1
E 51 115 1
E 52 116 1
E 52 180 1
E 53 61 1
E 53 117 1
E 56 120 1
E 56 184 1
E 56 312 1
E 60 124 1
E 60 188 1
E 60 316 1
E 65 193 1
E 65 321 1
E 66 194 1
E 68 196 1
E 68 324 1
E 69 77 1
E 69 85 1
E 70 198 1
E 70 326 1
E 72 80 1
E 72 200 1
E 74 202 1
E 74 330 1
E 76 204 1
E 77 93 1
E 77 109 1
E 79 80 1
E 80 208 1
E 80 336 1
E 82 210 1
E 82 338 1
E 84 212 1
E 85 117 1
E 88 216 1
E 88 344 1
E 92 220 1
E 92 348 1
E 98 226 1
E 98 354 1
E 104 360 1
E 108 364 1
E 109 110 1
E 109 111 1
E 109 237 1
E 110 366 1
E 111 239 1
E 111 367 1
E 113 117 1
E 113 121 1
E 113 369 1
E 116 372 1
E 117 118 1
E 117 119 1
E 117 125 1
E 117 245 1
E 118 126 1
E 118 374 1
E 119 127 1
E 119 247 1
E 119 375 1
E 125 253 1
E 125 381 1
E 129 385 1
E 131 135 1
E 131 139 1
E 131 147 1
E 132 388 1
E 133 141 1
E 133 149 1
E 134 390 1
E 135 143 1
E 135 199 1
E 136 144 1
E 138 394 1
E 139 203 1
E 141 157 1
E 141 173 1
E 141 205 1
E 144 400 1
E 146 402 1
E 147 179 1
E 147 211 1
E 149 181 1
E 149 213 1
E 152 408 1
E 153 185 1
E 153 217 1
E 153 409 1
E 156 412 1
E 162 418 1
E 168 424 1
E 172 428 1
E 180 436 1
E 182 190 1
E 182 438 1
E 191 255 1
E 194 450 1
E 200 456 1
E 204 460 1
E 212 468 1
E 222 224 1
E 223 255 1
E 224 256 1
E 225 226 1
E 225 481 1
E 226 228 1
E 226 230 1
E 226 234 1
E 226 242 1
E 227 228 1
E 228 232 1
E 228 236 1
E 228 244 1
E 228 484 1
E 229 230 1
E 230 238 1
E 230 246 1
E 230 486 1
E 233 234 1
E 234 250 1
E 234 490 1
E 235 251 1
E 235 491 1
E 237 493 1
E 239 240 1
E 239 255 1
E 240 256 1
E 241 242 1
E 242 498 1
E 245 501 1
E 259 263 1
E 259 267 1
E 259 275 1
E 259 291 1
E 259 323 1
E 261 269 1
E 261 277 1
E 261 293 1
E 261 325 1
E 263 271 1
E 263 295 1
E 263 327 1
E 263 391 1
E 265 281 1
E 265 297 1
E 265 329 1
E 267 299 1
E 267 331 1
E 267 395 1
E 269 285 1
E 269 301 1
E 269 333 1
E 269 397 1
E 275 307 1
E 275 339 1
E 275 403 1
E 277 309 1
E 277 341 1
E 277 405 1
E 281 313 1
E 281 345 1
E 281 409 1
E 291 355 1
E 291 419 1
E 293 357 1
E 293 421 1
E 297 361 1
E 297 425 1
E 310 318 1
E 310 374 1
E 310 438 1
E 311 319 1
E 311 375 1
E 323 451 1
E 325 453 1
E 329 457 1
E 342 350 1
E 342 374 1
E 342 470 1
E 343 351 1
E 343 375 1
E 369 370 1
E 369 371 1
E 370 378 1
E 371 379 1
E 371 499 1
E 374 376 1
E 376 384 1
E 400 416 1
E 400 432 1
E 400 464 1
E 401 409 1
E 401 433 1
E 401 465 1
E 409 410 1
E 409 411 1
E 409 413 1
E 409 473 1
E 410 442 1
E 410 474 1
E 411 443 1
E 411 475 1
E 413 445 1
E 413 477 1
E 414 416 1
E 415 416 1
E 430 432 1
E 431 432 1
E 432 448 1
E 435 439 1
E 435 499 1
E 462 464 1
E 463 464 1
E 464 480 1
E 464 496 1
E 467 471 1
E 467 499 1
E 473 505 1
E 487 495 1
E 491 495 1
E 491 507 1
E 493 495 1
E 493 509 1
E 499 503 1
E 503 504 1
E 507 508 1
E 509 510 1
E 509 511 1
END
SECTION Terminals
T 1
T 4
T 6
T 7
T 10
T 11
T 13
T 16
T 18
T 19
T 21
T 24
T 25
T 28
T 30
T 31
T 34
T 35
T 37
T 40
T 41
T 44
T 46
T 47
T 49
T 52
T 54
T 55
T 58
T 59
T 61
T 64
T 66
T 67
T 69
T 72
T 73
T 76
T 78
T 79
T 81
T 84
T 86
T 87
T 90
T 91
T 93
T 96
T 97
T 100
T 102
T 103
T 106
T 107
T 109
T 112
T 114
T 115
T 117
T 120
T 121
T 124
T 126
T 127
T 130
T 131
T 133
T 136
T 137
T 140
T 142
T 143
T 145
T 148
T 150
T 151
T 154
T 155
T 157
T 160
T 161
T 164
T 166
T 167
T 170
T 171
T 173
T 176
T 178
T 179
T 181
T 184
T 185
T 188
T 190
T 191
T 193
T 196
T 198
T 199
T 202
T 203
T 205
T 208
T 210
T 211
T 213
T 216
T 217
T 220
T 222
T 223
T 226
T 227
T 229
T 232
T 233
T 236
T 238
T 239
T 241
T 244
T 246
T 247
T 250
T 251
T 253
T 256
T 258
T 259
T 261
T 264
T 265
T 268
T 270
T 271
T 273
T 276
T 278
T 279
T 282
T 283
T 285
T 288
T 289
T 292
T 294
T 295
T 298
T 299
T 301
T 304
T 306
T 307
T 309
T 312
T 313
T 316
T 318
T 319
T 321
T 324
T 326
T 327
T 330
T 331
T 333
T 336
T 338
T 339
T 341
T 344
T 345
T 348
T 350
T 351
T 354
T 355
T 357
T 360
T 361
T 364
T 366
T 367
T 369
T 372
T 374
T 375
T 378
T 379
T 381
T 384
T 385
T 388
T 390
T 391
T 394
T 395
T 397
T 400
T 402
T 403
T 405
T 408
T 409
T 412
T 414
T 415
T 418
T 419
T 421
T 424
T 425
T 428
T 430
T 431
T 433
T 436
T 438
T 439
T 442
T 443
T 445
T 448
T 450
T 451
T 453
T 456
T 457
T 460
T 462
T 463
T 465
T 468
T 470
T 471
T 474
T 475
T 477
T 480
T 481
T 484
T 486
T 487
T 490
T 491
T 493
T 496
T 498
T 499
T 501
T 504
T 505
T 508
T 510
T 511
END
SECTION Cost
368
END
